# Objective value = 121
WA1n 0
WA1p 0
WA2n 1
WA2p 0
WB1n 0
WB1p 0
WB2n 1
WB2p 0
WC1n 1
WC1p 0
WD1n 1
WD1p 0
WE1n 2
WE1p 0
WF1n 0
WF1p 2
WG1n 0
WG1p 4
WH1n 0
WH1p 7
WH2n 0
WH2p 1
WI1n 0
WI1p 11
WI2n 0
WI2p 1
WJ1n 0
WJ1p 11
WJ2n 0
WJ2p 1
WK1n 30
WK1p 0
WK2n 1
WK2p 0
WL1n 30
WL1p 0
WL2n 1
WL2p 0
WT1n 0
WT1p 6
WT2n 0
WT2p 1
5 7
a 0
b 0
c 0
d 0
e 0
f 0
g 0
h 1
i 1
j 1
k 1
l 1
m 1
n 1
o 1
p 0
q 0
r 0
s 0
t 1
u 1
